
Gurobi 6.5.2 (win64) logging started 08/10/16 08:53:53

Optimize a model with 101583 rows, 73414 columns and 378890 nonzeros
Coefficient statistics:
  Matrix range    [1e+00, 1e+00]
  Objective range [1e+01, 4e+03]
  Bounds range    [1e+00, 1e+00]
  RHS range       [1e+00, 1e+00]
Found heuristic solution: objective 0
Variable types: 0 continuous, 73414 integer (73414 binary)

Root relaxation: objective -1.888140e+06, 17457 iterations, 0.37 seconds

    Nodes    |    Current Node    |     Objective Bounds      |     Work
 Expl Unexpl |  Obj  Depth IntInf | Incumbent    BestBd   Gap | It/Node Time

     0     0 -1888139.9    0  759    0.00000 -1888139.9      -     -    0s
H    0     0                    -1748205.358 -1888139.9  8.00%     -    2s
H    0     0                    -1771850.026 -1888139.9  6.56%     -    2s
H    0     0                    -1798061.233 -1888139.9  5.01%     -    2s
     0     0 -1880555.8    0  291 -1798061.2 -1880555.8  4.59%     -    2s
H    0     0                    -1835832.719 -1880555.8  2.44%     -    3s
H    0     0                    -1875845.828 -1880555.8  0.25%     -    3s
H    0     0                    -1876238.999 -1880555.8  0.23%     -    3s
     0     0 -1878678.9    0   48 -1876239.0 -1878678.9  0.13%     -    3s
H    0     0                    -1877650.335 -1878678.9  0.05%     -    3s
H    0     0                    -1878074.848 -1878678.9  0.03%     -    4s
     0     0 -1878457.5    0    9 -1878074.8 -1878457.5  0.02%     -    5s
H    0     0                    -1878399.022 -1878457.5  0.00%     -    5s

Cutting planes:
  Gomory: 77
  Implied bound: 6
  Clique: 86
  Zero half: 6

Explored 0 nodes (28414 simplex iterations) in 5.20 seconds
Thread count was 12 (of 12 available processors)

Optimal solution found (tolerance 1.00e-04)
Best objective -1.878399021983e+06, best bound -1.878457495163e+06, gap 0.0031%
Obj: -1878399.0219828004